unsat
(error "line 1801 column 17: model is not available")
(error "line 1802 column 17: model is not available")
(error "line 1803 column 18: model is not available")
(error "line 1804 column 18: model is not available")
(error "line 1805 column 18: model is not available")
(error "line 1806 column 18: model is not available")
(error "line 1807 column 18: model is not available")
(error "line 1808 column 18: model is not available")
(error "line 1809 column 18: model is not available")
(error "line 1810 column 18: model is not available")
(error "line 1811 column 18: model is not available")
(error "line 1812 column 18: model is not available")
(error "line 1813 column 17: model is not available")
(error "line 1814 column 18: model is not available")
(error "line 1815 column 18: model is not available")
(error "line 1816 column 18: model is not available")
(error "line 1817 column 18: model is not available")
(error "line 1818 column 18: model is not available")
(error "line 1819 column 18: model is not available")
(error "line 1820 column 18: model is not available")
(error "line 1821 column 18: model is not available")
(error "line 1822 column 18: model is not available")
(error "line 1823 column 18: model is not available")
(error "line 1824 column 17: model is not available")
(error "line 1825 column 18: model is not available")
(error "line 1826 column 18: model is not available")
(error "line 1827 column 18: model is not available")
(error "line 1828 column 18: model is not available")
(error "line 1829 column 18: model is not available")
(error "line 1830 column 18: model is not available")
(error "line 1831 column 18: model is not available")
(error "line 1832 column 18: model is not available")
(error "line 1833 column 18: model is not available")
(error "line 1834 column 18: model is not available")
(error "line 1835 column 17: model is not available")
(error "line 1836 column 18: model is not available")
(error "line 1837 column 18: model is not available")
(error "line 1838 column 18: model is not available")
(error "line 1839 column 18: model is not available")
(error "line 1840 column 18: model is not available")
(error "line 1841 column 18: model is not available")
(error "line 1842 column 18: model is not available")
(error "line 1843 column 18: model is not available")
(error "line 1844 column 18: model is not available")
(error "line 1845 column 18: model is not available")
(error "line 1846 column 17: model is not available")
(error "line 1847 column 18: model is not available")
(error "line 1848 column 18: model is not available")
(error "line 1849 column 18: model is not available")
(error "line 1850 column 18: model is not available")
(error "line 1851 column 18: model is not available")
(error "line 1852 column 18: model is not available")
(error "line 1853 column 18: model is not available")
(error "line 1854 column 18: model is not available")
(error "line 1855 column 18: model is not available")
(error "line 1856 column 18: model is not available")
(error "line 1857 column 17: model is not available")
(error "line 1858 column 18: model is not available")
(error "line 1859 column 18: model is not available")
(error "line 1860 column 17: model is not available")
(error "line 1861 column 17: model is not available")
(error "line 1862 column 17: model is not available")
(error "line 1863 column 38: model is not available")
(error "line 1864 column 45: model is not available")
(error "line 1865 column 38: model is not available")
(error "line 1866 column 45: model is not available")
(error "line 1867 column 46: model is not available")
(error "line 1868 column 53: model is not available")
(error "line 1869 column 40: model is not available")
(error "line 1870 column 47: model is not available")
(error "line 1871 column 38: model is not available")
(error "line 1872 column 45: model is not available")
(error "line 1873 column 38: model is not available")
(error "line 1874 column 45: model is not available")
(error "line 1875 column 41: model is not available")
(error "line 1876 column 48: model is not available")
(error "line 1877 column 41: model is not available")
(error "line 1878 column 48: model is not available")
(error "line 1879 column 41: model is not available")
(error "line 1880 column 48: model is not available")
(error "line 1881 column 41: model is not available")
(error "line 1882 column 41: model is not available")
(error "line 1883 column 48: model is not available")
(error "line 1884 column 37: model is not available")
(error "line 1885 column 44: model is not available")
(error "line 1886 column 42: model is not available")
(error "line 1887 column 42: model is not available")
(error "line 1888 column 42: model is not available")
(error "line 1889 column 38: model is not available")
(error "line 1890 column 38: model is not available")
(error "line 1891 column 38: model is not available")
(error "line 1892 column 38: model is not available")
(error "line 1893 column 38: model is not available")
(error "line 1894 column 41: model is not available")
(error "line 1895 column 48: model is not available")
(error "line 1896 column 36: model is not available")
(error "line 1897 column 36: model is not available")
(error "line 1898 column 47: model is not available")
(error "line 1899 column 47: model is not available")
(error "line 1900 column 44: model is not available")
(error "line 1901 column 44: model is not available")
(error "line 1902 column 38: model is not available")
(error "line 1903 column 39: model is not available")
(error "line 1904 column 38: model is not available")
(error "line 1905 column 38: model is not available")
(error "line 1906 column 38: model is not available")
(error "line 1907 column 38: model is not available")
(error "line 1908 column 38: model is not available")
(error "line 1909 column 38: model is not available")
(error "line 1910 column 38: model is not available")
(error "line 1911 column 38: model is not available")
(error "line 1912 column 19: model is not available")
(error "line 1913 column 26: model is not available")
(error "line 1914 column 19: model is not available")
(error "line 1915 column 26: model is not available")
(error "line 1916 column 19: model is not available")
(error "line 1917 column 26: model is not available")
(error "line 1918 column 19: model is not available")
(error "line 1919 column 26: model is not available")
(error "line 1920 column 19: model is not available")
(error "line 1921 column 26: model is not available")
(error "line 1922 column 19: model is not available")
(error "line 1923 column 26: model is not available")
(error "line 1924 column 19: model is not available")
(error "line 1925 column 26: model is not available")
(error "line 1926 column 19: model is not available")
(error "line 1927 column 26: model is not available")
(error "line 1928 column 19: model is not available")
(error "line 1929 column 26: model is not available")
(error "line 1930 column 36: model is not available")
(error "line 1931 column 36: model is not available")
(error "line 1932 column 34: model is not available")
(error "line 1933 column 34: model is not available")
(error "line 1934 column 34: model is not available")
(error "line 1935 column 34: model is not available")
(error "line 1936 column 34: model is not available")
(error "line 1937 column 34: model is not available")
(error "line 1938 column 34: model is not available")
(error "line 1939 column 34: model is not available")
(error "line 1940 column 29: model is not available")
(error "line 1941 column 31: model is not available")
(error "line 1942 column 38: model is not available")
(error "line 1943 column 32: model is not available")
(error "line 1944 column 39: model is not available")
(error "line 1945 column 31: model is not available")
(error "line 1946 column 38: model is not available")
(error "line 1947 column 31: model is not available")
(error "line 1948 column 38: model is not available")
(error "line 1949 column 31: model is not available")
(error "line 1950 column 38: model is not available")
(error "line 1951 column 31: model is not available")
(error "line 1952 column 38: model is not available")
(error "line 1953 column 31: model is not available")
(error "line 1954 column 38: model is not available")
(error "line 1955 column 31: model is not available")
(error "line 1956 column 38: model is not available")
(error "line 1957 column 31: model is not available")
(error "line 1958 column 38: model is not available")
(error "line 1959 column 30: model is not available")
(error "line 1960 column 32: model is not available")
(error "line 1961 column 39: model is not available")
(error "line 1962 column 32: model is not available")
(error "line 1963 column 39: model is not available")
(error "line 1964 column 32: model is not available")
(error "line 1965 column 39: model is not available")
(error "line 1966 column 32: model is not available")
(error "line 1967 column 39: model is not available")
(error "line 1968 column 32: model is not available")
(error "line 1969 column 39: model is not available")
(error "line 1970 column 30: model is not available")
(error "line 1971 column 32: model is not available")
(error "line 1972 column 39: model is not available")
(error "line 1973 column 32: model is not available")
(error "line 1974 column 39: model is not available")
(error "line 1975 column 32: model is not available")
(error "line 1976 column 39: model is not available")
(error "line 1977 column 32: model is not available")
(error "line 1978 column 39: model is not available")
(error "line 1979 column 32: model is not available")
(error "line 1980 column 39: model is not available")
(error "line 1981 column 34: model is not available")
(error "line 1982 column 36: model is not available")
(error "line 1983 column 43: model is not available")
(error "line 1984 column 36: model is not available")
(error "line 1985 column 43: model is not available")
(error "line 1986 column 36: model is not available")
(error "line 1987 column 43: model is not available")
(error "line 1988 column 36: model is not available")
(error "line 1989 column 43: model is not available")
(error "line 1990 column 52: model is not available")
(error "line 1991 column 51: model is not available")
(error "line 1992 column 53: model is not available")
(error "line 1993 column 53: model is not available")
(error "line 1994 column 53: model is not available")
(error "line 1995 column 52: model is not available")
(error "line 1996 column 52: model is not available")
(error "line 1997 column 52: model is not available")
(error "line 1998 column 52: model is not available")
(error "line 1999 column 52: model is not available")
(error "line 2000 column 52: model is not available")
(error "line 2001 column 52: model is not available")
(error "line 2002 column 52: model is not available")
(error "line 2003 column 51: model is not available")
(error "line 2004 column 51: model is not available")
(error "line 2005 column 52: model is not available")
(error "line 2006 column 51: model is not available")
(error "line 2007 column 50: model is not available")
(error "line 2008 column 51: model is not available")
(error "line 2009 column 52: model is not available")
(error "line 2010 column 51: model is not available")
(error "line 2011 column 52: model is not available")
(error "line 2012 column 51: model is not available")
(error "line 2013 column 50: model is not available")
(error "line 2014 column 50: model is not available")
(error "line 2015 column 51: model is not available")
(error "line 2016 column 52: model is not available")
(error "line 2017 column 52: model is not available")
(error "line 2018 column 52: model is not available")
(error "line 2019 column 52: model is not available")
(error "line 2020 column 52: model is not available")
(error "line 2021 column 52: model is not available")
(error "line 2022 column 52: model is not available")
(error "line 2023 column 52: model is not available")
(error "line 2024 column 53: model is not available")
(error "line 2025 column 52: model is not available")
(error "line 2026 column 52: model is not available")
(error "line 2027 column 52: model is not available")
(error "line 2028 column 52: model is not available")
(error "line 2029 column 51: model is not available")
(error "line 2030 column 51: model is not available")
(error "line 2031 column 52: model is not available")
(error "line 2032 column 51: model is not available")
(error "line 2033 column 52: model is not available")
(error "line 2034 column 52: model is not available")
(error "line 2035 column 51: model is not available")
(error "line 2036 column 51: model is not available")
(error "line 2037 column 51: model is not available")
(error "line 2038 column 52: model is not available")
(error "line 2039 column 56: model is not available")
(error "line 2040 column 56: model is not available")
(error "line 2041 column 55: model is not available")
(error "line 2042 column 21: model is not available")
(error "line 2043 column 28: model is not available")
(error "line 2044 column 21: model is not available")
(error "line 2045 column 28: model is not available")
(error "line 2046 column 21: model is not available")
(error "line 2047 column 28: model is not available")
(error "line 2048 column 21: model is not available")
(error "line 2049 column 28: model is not available")
(error "line 2050 column 21: model is not available")
(error "line 2051 column 28: model is not available")
(error "line 2052 column 21: model is not available")
(error "line 2053 column 28: model is not available")
(error "line 2054 column 21: model is not available")
(error "line 2055 column 28: model is not available")
(error "line 2056 column 21: model is not available")
(error "line 2057 column 28: model is not available")
(error "line 2058 column 20: model is not available")
(error "line 2059 column 27: model is not available")
(error "line 2060 column 20: model is not available")
(error "line 2061 column 27: model is not available")
(error "line 2062 column 20: model is not available")
(error "line 2063 column 27: model is not available")
(error "line 2064 column 20: model is not available")
(error "line 2065 column 27: model is not available")
(error "line 2066 column 20: model is not available")
(error "line 2067 column 27: model is not available")
(error "line 2068 column 20: model is not available")
(error "line 2069 column 27: model is not available")
(error "line 2070 column 20: model is not available")
(error "line 2071 column 27: model is not available")
(error "line 2072 column 20: model is not available")
(error "line 2073 column 27: model is not available")
(error "line 2074 column 20: model is not available")
(error "line 2075 column 27: model is not available")
(error "line 2076 column 54: model is not available")
(error "line 2077 column 54: model is not available")
(error "line 2078 column 52: model is not available")
(error "line 2079 column 52: model is not available")
(error "line 2080 column 49: model is not available")
(error "line 2081 column 49: model is not available")
(error "line 2082 column 49: model is not available")
(error "line 2083 column 49: model is not available")
(error "line 2084 column 44: model is not available")
(error "line 2085 column 44: model is not available")
(error "line 2086 column 44: model is not available")
(error "line 2087 column 44: model is not available")
(error "line 2088 column 49: model is not available")
(error "line 2089 column 49: model is not available")
(error "line 2090 column 46: model is not available")
(error "line 2091 column 46: model is not available")
(error "line 2092 column 46: model is not available")
(error "line 2093 column 46: model is not available")
(error "line 2094 column 54: model is not available")
(error "line 2095 column 54: model is not available")
(error "line 2096 column 54: model is not available")
(error "line 2097 column 54: model is not available")
(error "line 2098 column 54: model is not available")
(error "line 2099 column 54: model is not available")
(error "line 2100 column 40: model is not available")
(error "line 2101 column 40: model is not available")
(error "line 2102 column 40: model is not available")
(error "line 2103 column 40: model is not available")
(error "line 2104 column 41: model is not available")
(error "line 2105 column 41: model is not available")
(error "line 2106 column 41: model is not available")
(error "line 2107 column 41: model is not available")
(error "line 2108 column 50: model is not available")
(error "line 2109 column 50: model is not available")
(error "line 2110 column 50: model is not available")
(error "line 2111 column 50: model is not available")
(error "line 2112 column 43: model is not available")
(error "line 2113 column 43: model is not available")
(error "line 2114 column 43: model is not available")
(error "line 2115 column 43: model is not available")
(error "line 2116 column 44: model is not available")
(error "line 2117 column 44: model is not available")
(error "line 2118 column 53: model is not available")
(error "line 2119 column 53: model is not available")
(error "line 2120 column 50: model is not available")
(error "line 2121 column 50: model is not available")
(error "line 2122 column 50: model is not available")
(error "line 2123 column 50: model is not available")
(error "line 2124 column 46: model is not available")
(error "line 2125 column 46: model is not available")
(error "line 2126 column 50: model is not available")
(error "line 2127 column 50: model is not available")
(error "line 2128 column 50: model is not available")
(error "line 2129 column 50: model is not available")
(error "line 2130 column 52: model is not available")
(error "line 2131 column 52: model is not available")
(error "line 2132 column 21: model is not available")
(error "line 2133 column 28: model is not available")
(error "line 2134 column 21: model is not available")
(error "line 2135 column 28: model is not available")
(error "line 2136 column 30: model is not available")
(error "line 2137 column 30: model is not available")
(error "line 2138 column 41: model is not available")
(error "line 2139 column 41: model is not available")
(error "line 2140 column 39: model is not available")
(error "line 2141 column 39: model is not available")
(error "line 2142 column 39: model is not available")
(error "line 2143 column 39: model is not available")
(error "line 2144 column 39: model is not available")
(error "line 2145 column 39: model is not available")
(error "line 2146 column 39: model is not available")
(error "line 2147 column 39: model is not available")
(error "line 2148 column 36: model is not available")
(error "line 2149 column 36: model is not available")
(error "line 2150 column 36: model is not available")
(error "line 2151 column 36: model is not available")
(error "line 2152 column 38: model is not available")
(error "line 2153 column 38: model is not available")
(error "line 2154 column 38: model is not available")
(error "line 2155 column 38: model is not available")
(error "line 2156 column 35: model is not available")
(error "line 2157 column 35: model is not available")
(error "line 2159 column 10: model is not available")
(:max-memory   3.54
 :memory       3.23
 :mk-bool-var  5
 :num-allocs   1180895
 :rlimit-count 594
 :time         0.00
 :total-time   0.01)

real	0m0.013s
user	0m0.013s
sys	0m0.000s
State: RE Run_time: 0.015086650848388672